(set-logic QF_LRA)
(declare-fun X0 () Real )
(declare-fun Y0 () Real )
(declare-fun X1 () Real )
(declare-fun Y1 () Real )
(declare-fun X2 () Real )
(declare-fun Y2 () Real )
(declare-fun X3 () Real )
(declare-fun Y3 () Real )
(declare-fun X4 () Real )
(declare-fun Y4 () Real )
(declare-fun X5 () Real )
(declare-fun Y5 () Real )
(declare-fun Z () Real )
(declare-fun k () Real )
(assert (let
(( $goal (>= Z k) ))
(let
((
$phi ( and 
( or ( <= ( + X0 34 ) X1 )  ( <= ( + X1 84 ) X0 )  ( <= ( + Y0 4 ) Y1 )  ( <= ( + Y1 68 ) Y0 )  )
( or ( <= ( + X0 34 ) X2 )  ( <= ( + X2 82 ) X0 )  ( <= ( + Y0 4 ) Y2 )  ( <= ( + Y2 44 ) Y0 )  )
( or ( <= ( + X0 34 ) X3 )  ( <= ( + X3 12 ) X0 )  ( <= ( + Y0 4 ) Y3 )  ( <= ( + Y3 7 ) Y0 )  )
( or ( <= ( + X0 34 ) X4 )  ( <= ( + X4 71 ) X0 )  ( <= ( + Y0 4 ) Y4 )  ( <= ( + Y4 50 ) Y0 )  )
( or ( <= ( + X0 34 ) X5 )  ( <= ( + X5 18 ) X0 )  ( <= ( + Y0 4 ) Y5 )  ( <= ( + Y5 39 ) Y0 )  )
( or ( <= ( + X1 84 ) X2 )  ( <= ( + X2 82 ) X1 )  ( <= ( + Y1 68 ) Y2 )  ( <= ( + Y2 44 ) Y1 )  )
( or ( <= ( + X1 84 ) X3 )  ( <= ( + X3 12 ) X1 )  ( <= ( + Y1 68 ) Y3 )  ( <= ( + Y3 7 ) Y1 )  )
( or ( <= ( + X1 84 ) X4 )  ( <= ( + X4 71 ) X1 )  ( <= ( + Y1 68 ) Y4 )  ( <= ( + Y4 50 ) Y1 )  )
( or ( <= ( + X1 84 ) X5 )  ( <= ( + X5 18 ) X1 )  ( <= ( + Y1 68 ) Y5 )  ( <= ( + Y5 39 ) Y1 )  )
( or ( <= ( + X2 82 ) X3 )  ( <= ( + X3 12 ) X2 )  ( <= ( + Y2 44 ) Y3 )  ( <= ( + Y3 7 ) Y2 )  )
( or ( <= ( + X2 82 ) X4 )  ( <= ( + X4 71 ) X2 )  ( <= ( + Y2 44 ) Y4 )  ( <= ( + Y4 50 ) Y2 )  )
( or ( <= ( + X2 82 ) X5 )  ( <= ( + X5 18 ) X2 )  ( <= ( + Y2 44 ) Y5 )  ( <= ( + Y5 39 ) Y2 )  )
( or ( <= ( + X3 12 ) X4 )  ( <= ( + X4 71 ) X3 )  ( <= ( + Y3 7 ) Y4 )  ( <= ( + Y4 50 ) Y3 )  )
( or ( <= ( + X3 12 ) X5 )  ( <= ( + X5 18 ) X3 )  ( <= ( + Y3 7 ) Y5 )  ( <= ( + Y5 39 ) Y3 )  )
( or ( <= ( + X4 71 ) X5 )  ( <= ( + X5 18 ) X4 )  ( <= ( + Y4 50 ) Y5 )  ( <= ( + Y5 39 ) Y4 )  )
( >= X0 0)
( <= ( + X0 34) Z)
( >= Y0 0)
( <= ( + Y0 4 ) 100)
( >= X1 0)
( <= ( + X1 84) Z)
( >= Y1 0)
( <= ( + Y1 68 ) 100)
( >= X2 0)
( <= ( + X2 82) Z)
( >= Y2 0)
( <= ( + Y2 44 ) 100)
( >= X3 0)
( <= ( + X3 12) Z)
( >= Y3 0)
( <= ( + Y3 7 ) 100)
( >= X4 0)
( <= ( + X4 71) Z)
( >= Y4 0)
( <= ( + Y4 50 ) 100)
( >= X5 0)
( <= ( + X5 18) Z)
( >= Y5 0)
( <= ( + Y5 39 ) 100)
) )
)(=> $phi $goal))))